NAME: random-23-13647
TYPE: TSP
COMMENT: size=23 seed=13647
DIMENSION: 48
EDGE_WEIGHT_TYPE: EUC_2D
NODE_COORD_SECTION
+0 129 738
-0 129 738
+1 20 748
-1 594 258
+2 491 238
-2 929 819
+3 344 437
-3 926 925
+4 696 728
-4 376 900
+5 82 659
-5 784 620
+6 411 721
-6 68 38
+7 933 602
-7 78 975
+8 357 140
-8 955 638
+9 862 69
-9 585 892
+10 612 808
-10 557 585
+11 318 838
-11 23 646
+12 31 94
-12 27 198
+13 208 871
-13 602 46
+14 795 62
-14 581 819
+15 919 307
-15 88 137
+16 39 464
-16 215 990
+17 218 769
-17 855 133
+18 538 321
-18 492 972
+19 634 891
-19 351 873
+20 246 448
-20 211 582
+21 843 788
-21 526 735
+22 364 284
-22 882 121
+23 605 66
-23 842 587
PRECEDENCE_SECTION
+0 -0
+1 -1
+2 -2
+3 -3
+4 -4
+5 -5
+6 -6
+7 -7
+8 -8
+9 -9
+10 -10
+11 -11
+12 -12
+13 -13
+14 -14
+15 -15
+16 -16
+17 -17
+18 -18
+19 -19
+20 -20
+21 -21
+22 -22
+23 -23
EOF
